<?xml version = "1.0" encoding="UTF-8" standalone="yes"?>
<CPLEXSolution version="1.2">
 <header
   problemName="IloCplex"
   solutionName="p0"
   solutionIndex="-1"
   objectiveValue="258842"
   solutionTypeValue="3"
   solutionTypeString="primal"
   solutionStatusValue="127"
   solutionStatusString="integer feasible solution"
   solutionMethodString="mip"
   primalFeasible="0"
   dualFeasible="0"
   writeLevel="3"/>
 <quality
   epInt="1.0000000000000001e-05"
   epRHS="9.9999999999999995e-07"
   maxIntInfeas="0"
   maxPrimalInfeas="0"
   maxX="662"
   maxSlack="562"/>
 <variables>
  <variable index="0" value="662"/>
  <variable index="1" value="662"/>
  <variable index="2" value="662"/>
  <variable index="7" value="662"/>
  <variable index="8" value="662"/>
  <variable index="23" value="1"/>
  <variable index="130" value="1"/>
  <variable index="281" value="1"/>
  <variable index="354" value="1"/>
  <variable index="451" value="1"/>
  <variable index="583" value="1"/>
  <variable index="701" value="1"/>
  <variable index="772" value="1"/>
  <variable index="869" value="1"/>
  <variable index="943" value="1"/>
  <variable index="1014" value="1"/>
  <variable index="1207" value="1"/>
  <variable index="1303" value="1"/>
  <variable index="1328" value="1"/>
  <variable index="1425" value="1"/>
  <variable index="1527" value="1"/>
  <variable index="1674" value="1"/>
  <variable index="1806" value="1"/>
  <variable index="1813" value="1"/>
  <variable index="1924" value="1"/>
  <variable index="2093" value="1"/>
  <variable index="2188" value="1"/>
  <variable index="2252" value="1"/>
  <variable index="2336" value="1"/>
  <variable index="2434" value="1"/>
  <variable index="2535" value="1"/>
  <variable index="2664" value="1"/>
  <variable index="2749" value="1"/>
  <variable index="2889" value="1"/>
  <variable index="3009" value="1"/>
  <variable index="3099" value="1"/>
  <variable index="3170" value="1"/>
  <variable index="3256" value="1"/>
  <variable index="3337" value="1"/>
  <variable index="3422" value="1"/>
  <variable index="3585" value="1"/>
  <variable index="3704" value="1"/>
  <variable index="3758" value="1"/>
  <variable index="3865" value="1"/>
  <variable index="3992" value="1"/>
  <variable index="4033" value="1"/>
  <variable index="4162" value="1"/>
  <variable index="4260" value="1"/>
  <variable index="4321" value="1"/>
  <variable index="4420" value="1"/>
  <variable index="4571" value="1"/>
  <variable index="4612" value="1"/>
  <variable index="4768" value="1"/>
  <variable index="4842" value="1"/>
  <variable index="4915" value="1"/>
  <variable index="5026" value="1"/>
  <variable index="5187" value="1"/>
  <variable index="5284" value="1"/>
  <variable index="5332" value="1"/>
  <variable index="5429" value="1"/>
  <variable index="5575" value="1"/>
  <variable index="5611" value="1"/>
  <variable index="5780" value="1"/>
  <variable index="5847" value="1"/>
  <variable index="5976" value="1"/>
  <variable index="6094" value="1"/>
  <variable index="6186" value="1"/>
  <variable index="6216" value="1"/>
  <variable index="6345" value="1"/>
  <variable index="6461" value="1"/>
  <variable index="6557" value="1"/>
  <variable index="6631" value="1"/>
  <variable index="6798" value="1"/>
  <variable index="6817" value="1"/>
  <variable index="6982" value="1"/>
  <variable index="7063" value="1"/>
  <variable index="7110" value="1"/>
  <variable index="7218" value="1"/>
  <variable index="7366" value="1"/>
  <variable index="7467" value="1"/>
  <variable index="7579" value="1"/>
  <variable index="7702" value="1"/>
  <variable index="7759" value="1"/>
  <variable index="7844" value="1"/>
  <variable index="7941" value="1"/>
  <variable index="8046" value="1"/>
  <variable index="8195" value="1"/>
  <variable index="8219" value="1"/>
  <variable index="8353" value="1"/>
  <variable index="8508" value="1"/>
  <variable index="8550" value="1"/>
  <variable index="8678" value="1"/>
  <variable index="8790" value="1"/>
  <variable index="8838" value="1"/>
  <variable index="8991" value="1"/>
  <variable index="9097" value="1"/>
  <variable index="9205" value="1"/>
  <variable index="9255" value="1"/>
  <variable index="9339" value="1"/>
  <variable index="9477" value="1"/>
  <variable index="9596" value="1"/>
  <variable index="9648" value="1"/>
  <variable index="9740" value="1"/>
  <variable index="9873" value="1"/>
  <variable index="10000" value="1"/>
  <variable index="10010" value="1"/>
  <variable index="10011" value="1"/>
  <variable index="10012" value="1"/>
  <variable index="10017" value="1"/>
  <variable index="10018" value="1"/>
  <variable index="10020" value="662"/>
 </variables>
</CPLEXSolution>
